c PMC file for PBN ISCAS/c1355_distill_ISCAS/c1355_miter written by probABC
p cnf 965 2718
c ind 1 2 3 4 5 6 7 8 9 10 11 12 13 14 15 16 17 18 19 20 21 22 23 24 25 26 27 28 29 30 31 32 33 34 35 36 37 38 39 40 41 942 943 944 945 946 947 948 949 950 951 952 953 954 955 956 957 958 959 0
49 -1 -5 0
-49 1 0
-49 5 0
50 -1 49 0
-50 1 0
-50 -49 0
51 -5 49 0
-51 5 0
-51 -49 0
52 50 51 0
-52 -50 0
-52 -51 0
53 -9 -13 0
-53 9 0
-53 13 0
54 -9 53 0
-54 9 0
-54 -53 0
55 -13 53 0
-55 13 0
-55 -53 0
56 54 55 0
-56 -54 0
-56 -55 0
57 52 56 0
-57 -52 0
-57 -56 0
58 52 57 0
-58 -52 0
-58 -57 0
59 56 57 0
-59 -56 0
-59 -57 0
60 58 59 0
-60 -58 0
-60 -59 0
61 -33 -41 0
-61 33 0
-61 41 0
62 -17 -18 0
-62 17 0
-62 18 0
63 -17 62 0
-63 17 0
-63 -62 0
64 -18 62 0
-64 18 0
-64 -62 0
65 63 64 0
-65 -63 0
-65 -64 0
66 -19 -20 0
-66 19 0
-66 20 0
67 -19 66 0
-67 19 0
-67 -66 0
68 -20 66 0
-68 20 0
-68 -66 0
69 67 68 0
-69 -67 0
-69 -68 0
70 65 69 0
-70 -65 0
-70 -69 0
71 65 70 0
-71 -65 0
-71 -70 0
72 69 70 0
-72 -69 0
-72 -70 0
73 71 72 0
-73 -71 0
-73 -72 0
74 -21 -22 0
-74 21 0
-74 22 0
75 -21 74 0
-75 21 0
-75 -74 0
76 -22 74 0
-76 22 0
-76 -74 0
77 75 76 0
-77 -75 0
-77 -76 0
78 -23 -24 0
-78 23 0
-78 24 0
79 -23 78 0
-79 23 0
-79 -78 0
80 -24 78 0
-80 24 0
-80 -78 0
81 79 80 0
-81 -79 0
-81 -80 0
82 77 81 0
-82 -77 0
-82 -81 0
83 77 82 0
-83 -77 0
-83 -82 0
84 81 82 0
-84 -81 0
-84 -82 0
85 83 84 0
-85 -83 0
-85 -84 0
86 73 85 0
-86 -73 0
-86 -85 0
87 73 86 0
-87 -73 0
-87 -86 0
88 85 86 0
-88 -85 0
-88 -86 0
89 87 88 0
-89 -87 0
-89 -88 0
90 -61 89 0
-90 61 0
-90 -89 0
91 -42 90 0
-91 42 0
-91 -90 0
92 42 -90 0
-92 -42 0
-92 90 0
93 91 92 0
-93 -91 0
-93 -92 0
94 -61 -93 0
-94 61 0
-94 93 0
95 89 -93 0
-95 -89 0
-95 93 0
96 94 95 0
-96 -94 0
-96 -95 0
97 60 96 0
-97 -60 0
-97 -96 0
98 60 97 0
-98 -60 0
-98 -97 0
99 96 97 0
-99 -96 0
-99 -97 0
100 98 99 0
-100 -98 0
-100 -99 0
101 -17 -21 0
-101 17 0
-101 21 0
102 -17 101 0
-102 17 0
-102 -101 0
103 -21 101 0
-103 21 0
-103 -101 0
104 102 103 0
-104 -102 0
-104 -103 0
105 -25 -29 0
-105 25 0
-105 29 0
106 -25 105 0
-106 25 0
-106 -105 0
107 -29 105 0
-107 29 0
-107 -105 0
108 -43 107 0
-108 43 0
-108 -107 0
109 43 -107 0
-109 -43 0
-109 107 0
110 108 109 0
-110 -108 0
-110 -109 0
111 106 -110 0
-111 -106 0
-111 110 0
112 104 111 0
-112 -104 0
-112 -111 0
113 104 112 0
-113 -104 0
-113 -112 0
114 111 112 0
-114 -111 0
-114 -112 0
115 113 114 0
-115 -113 0
-115 -114 0
116 -37 -41 0
-116 37 0
-116 41 0
117 -1 -2 0
-117 1 0
-117 2 0
118 -1 117 0
-118 1 0
-118 -117 0
119 -2 117 0
-119 2 0
-119 -117 0
120 118 119 0
-120 -118 0
-120 -119 0
121 -3 -4 0
-121 3 0
-121 4 0
122 -3 121 0
-122 3 0
-122 -121 0
123 -4 121 0
-123 4 0
-123 -121 0
124 122 123 0
-124 -122 0
-124 -123 0
125 120 124 0
-125 -120 0
-125 -124 0
126 120 125 0
-126 -120 0
-126 -125 0
127 124 125 0
-127 -124 0
-127 -125 0
128 126 127 0
-128 -126 0
-128 -127 0
129 -5 -6 0
-129 5 0
-129 6 0
130 -5 129 0
-130 5 0
-130 -129 0
131 -6 129 0
-131 6 0
-131 -129 0
132 130 131 0
-132 -130 0
-132 -131 0
133 -7 -8 0
-133 7 0
-133 8 0
134 -7 133 0
-134 7 0
-134 -133 0
135 -8 133 0
-135 8 0
-135 -133 0
136 134 135 0
-136 -134 0
-136 -135 0
137 132 136 0
-137 -132 0
-137 -136 0
138 132 137 0
-138 -132 0
-138 -137 0
139 136 137 0
-139 -136 0
-139 -137 0
140 138 139 0
-140 -138 0
-140 -139 0
141 128 140 0
-141 -128 0
-141 -140 0
142 128 141 0
-142 -128 0
-142 -141 0
143 140 141 0
-143 -140 0
-143 -141 0
144 142 143 0
-144 -142 0
-144 -143 0
145 -116 144 0
-145 116 0
-145 -144 0
146 -116 145 0
-146 116 0
-146 -145 0
147 144 145 0
-147 -144 0
-147 -145 0
148 146 147 0
-148 -146 0
-148 -147 0
149 115 148 0
-149 -115 0
-149 -148 0
150 115 149 0
-150 -115 0
-150 -149 0
151 148 149 0
-151 -148 0
-151 -149 0
152 150 151 0
-152 -150 0
-152 -151 0
153 -18 -22 0
-153 18 0
-153 22 0
154 -18 153 0
-154 18 0
-154 -153 0
155 -22 153 0
-155 22 0
-155 -153 0
156 154 155 0
-156 -154 0
-156 -155 0
157 -26 -30 0
-157 26 0
-157 30 0
158 -26 157 0
-158 26 0
-158 -157 0
159 -30 157 0
-159 30 0
-159 -157 0
160 -44 159 0
-160 44 0
-160 -159 0
161 44 -159 0
-161 -44 0
-161 159 0
162 160 161 0
-162 -160 0
-162 -161 0
163 158 -162 0
-163 -158 0
-163 162 0
164 156 163 0
-164 -156 0
-164 -163 0
165 156 164 0
-165 -156 0
-165 -164 0
166 163 164 0
-166 -163 0
-166 -164 0
167 165 166 0
-167 -165 0
-167 -166 0
168 -38 -41 0
-168 38 0
-168 41 0
169 -9 -10 0
-169 9 0
-169 10 0
170 -9 169 0
-170 9 0
-170 -169 0
171 -10 169 0
-171 10 0
-171 -169 0
172 170 171 0
-172 -170 0
-172 -171 0
173 -11 -12 0
-173 11 0
-173 12 0
174 -11 173 0
-174 11 0
-174 -173 0
175 -12 173 0
-175 12 0
-175 -173 0
176 174 175 0
-176 -174 0
-176 -175 0
177 172 176 0
-177 -172 0
-177 -176 0
178 172 177 0
-178 -172 0
-178 -177 0
179 176 177 0
-179 -176 0
-179 -177 0
180 178 179 0
-180 -178 0
-180 -179 0
181 -13 -14 0
-181 13 0
-181 14 0
182 -13 181 0
-182 13 0
-182 -181 0
183 -14 181 0
-183 14 0
-183 -181 0
184 182 183 0
-184 -182 0
-184 -183 0
185 -15 -16 0
-185 15 0
-185 16 0
186 -15 185 0
-186 15 0
-186 -185 0
187 -16 185 0
-187 16 0
-187 -185 0
188 186 187 0
-188 -186 0
-188 -187 0
189 184 188 0
-189 -184 0
-189 -188 0
190 184 189 0
-190 -184 0
-190 -189 0
191 188 189 0
-191 -188 0
-191 -189 0
192 190 191 0
-192 -190 0
-192 -191 0
193 180 192 0
-193 -180 0
-193 -192 0
194 180 193 0
-194 -180 0
-194 -193 0
195 192 193 0
-195 -192 0
-195 -193 0
196 194 195 0
-196 -194 0
-196 -195 0
197 -168 196 0
-197 168 0
-197 -196 0
198 -168 197 0
-198 168 0
-198 -197 0
199 196 197 0
-199 -196 0
-199 -197 0
200 198 199 0
-200 -198 0
-200 -199 0
201 167 200 0
-201 -167 0
-201 -200 0
202 167 201 0
-202 -167 0
-202 -201 0
203 200 201 0
-203 -200 0
-203 -201 0
204 202 203 0
-204 -202 0
-204 -203 0
205 -19 -23 0
-205 19 0
-205 23 0
206 -19 205 0
-206 19 0
-206 -205 0
207 -23 205 0
-207 23 0
-207 -205 0
208 206 207 0
-208 -206 0
-208 -207 0
209 -27 -31 0
-209 27 0
-209 31 0
210 -27 209 0
-210 27 0
-210 -209 0
211 -31 209 0
-211 31 0
-211 -209 0
212 210 211 0
-212 -210 0
-212 -211 0
213 208 212 0
-213 -208 0
-213 -212 0
214 208 213 0
-214 -208 0
-214 -213 0
215 212 213 0
-215 -212 0
-215 -213 0
216 214 215 0
-216 -214 0
-216 -215 0
217 -39 -41 0
-217 39 0
-217 41 0
218 128 180 0
-218 -128 0
-218 -180 0
219 128 218 0
-219 -128 0
-219 -218 0
220 180 218 0
-220 -180 0
-220 -218 0
221 219 220 0
-221 -219 0
-221 -220 0
222 -217 221 0
-222 217 0
-222 -221 0
223 -217 222 0
-223 217 0
-223 -222 0
224 221 222 0
-224 -221 0
-224 -222 0
225 223 224 0
-225 -223 0
-225 -224 0
226 216 225 0
-226 -216 0
-226 -225 0
227 216 226 0
-227 -216 0
-227 -226 0
228 225 226 0
-228 -225 0
-228 -226 0
229 227 228 0
-229 -227 0
-229 -228 0
230 -20 -24 0
-230 20 0
-230 24 0
231 -20 230 0
-231 20 0
-231 -230 0
232 -24 230 0
-232 24 0
-232 -230 0
233 231 232 0
-233 -231 0
-233 -232 0
234 -28 -32 0
-234 28 0
-234 32 0
235 -28 234 0
-235 28 0
-235 -234 0
236 -32 234 0
-236 32 0
-236 -234 0
237 235 236 0
-237 -235 0
-237 -236 0
238 233 237 0
-238 -233 0
-238 -237 0
239 233 238 0
-239 -233 0
-239 -238 0
240 237 238 0
-240 -237 0
-240 -238 0
241 239 240 0
-241 -239 0
-241 -240 0
242 -40 -41 0
-242 40 0
-242 41 0
243 140 192 0
-243 -140 0
-243 -192 0
244 140 243 0
-244 -140 0
-244 -243 0
245 192 243 0
-245 -192 0
-245 -243 0
246 244 245 0
-246 -244 0
-246 -245 0
247 -242 246 0
-247 242 0
-247 -246 0
248 -242 247 0
-248 242 0
-248 -247 0
249 246 247 0
-249 -246 0
-249 -247 0
250 248 249 0
-250 -248 0
-250 -249 0
251 241 250 0
-251 -241 0
-251 -250 0
252 241 251 0
-252 -241 0
-252 -251 0
253 250 251 0
-253 -250 0
-253 -251 0
254 252 253 0
-254 -252 0
-254 -253 0
255 -2 -6 0
-255 2 0
-255 6 0
256 -2 255 0
-256 2 0
-256 -255 0
257 -6 255 0
-257 6 0
-257 -255 0
258 256 257 0
-258 -256 0
-258 -257 0
259 -10 -14 0
-259 10 0
-259 14 0
260 -10 259 0
-260 10 0
-260 -259 0
261 -14 259 0
-261 14 0
-261 -259 0
262 260 261 0
-262 -260 0
-262 -261 0
263 258 262 0
-263 -258 0
-263 -262 0
264 258 263 0
-264 -258 0
-264 -263 0
265 262 263 0
-265 -262 0
-265 -263 0
266 264 265 0
-266 -264 0
-266 -265 0
267 -34 -41 0
-267 34 0
-267 41 0
268 -25 -26 0
-268 25 0
-268 26 0
269 -25 268 0
-269 25 0
-269 -268 0
270 -26 268 0
-270 26 0
-270 -268 0
271 269 270 0
-271 -269 0
-271 -270 0
272 -27 -28 0
-272 27 0
-272 28 0
273 -27 272 0
-273 27 0
-273 -272 0
274 -28 272 0
-274 28 0
-274 -272 0
275 273 274 0
-275 -273 0
-275 -274 0
276 271 275 0
-276 -271 0
-276 -275 0
277 271 276 0
-277 -271 0
-277 -276 0
278 275 276 0
-278 -275 0
-278 -276 0
279 277 278 0
-279 -277 0
-279 -278 0
280 -29 -30 0
-280 29 0
-280 30 0
281 -29 280 0
-281 29 0
-281 -280 0
282 -30 280 0
-282 30 0
-282 -280 0
283 281 282 0
-283 -281 0
-283 -282 0
284 -31 -32 0
-284 31 0
-284 32 0
285 -31 284 0
-285 31 0
-285 -284 0
286 -32 284 0
-286 32 0
-286 -284 0
287 285 286 0
-287 -285 0
-287 -286 0
288 283 287 0
-288 -283 0
-288 -287 0
289 283 288 0
-289 -283 0
-289 -288 0
290 287 288 0
-290 -287 0
-290 -288 0
291 289 290 0
-291 -289 0
-291 -290 0
292 279 291 0
-292 -279 0
-292 -291 0
293 -45 292 0
-293 45 0
-293 -292 0
294 45 -292 0
-294 -45 0
-294 292 0
295 293 294 0
-295 -293 0
-295 -294 0
296 279 -295 0
-296 -279 0
-296 295 0
297 291 -295 0
-297 -291 0
-297 295 0
298 296 297 0
-298 -296 0
-298 -297 0
299 -267 298 0
-299 267 0
-299 -298 0
300 -267 299 0
-300 267 0
-300 -299 0
301 298 299 0
-301 -298 0
-301 -299 0
302 300 301 0
-302 -300 0
-302 -301 0
303 266 302 0
-303 -266 0
-303 -302 0
304 266 303 0
-304 -266 0
-304 -303 0
305 302 303 0
-305 -302 0
-305 -303 0
306 304 305 0
-306 -304 0
-306 -305 0
307 -3 -7 0
-307 3 0
-307 7 0
308 -3 307 0
-308 3 0
-308 -307 0
309 -7 307 0
-309 7 0
-309 -307 0
310 308 309 0
-310 -308 0
-310 -309 0
311 -11 -15 0
-311 11 0
-311 15 0
312 -11 311 0
-312 11 0
-312 -311 0
313 -15 311 0
-313 15 0
-313 -311 0
314 312 313 0
-314 -312 0
-314 -313 0
315 310 314 0
-315 -310 0
-315 -314 0
316 310 315 0
-316 -310 0
-316 -315 0
317 314 315 0
-317 -314 0
-317 -315 0
318 316 317 0
-318 -316 0
-318 -317 0
319 -35 -41 0
-319 35 0
-319 41 0
320 73 279 0
-320 -73 0
-320 -279 0
321 73 320 0
-321 -73 0
-321 -320 0
322 279 320 0
-322 -279 0
-322 -320 0
323 321 322 0
-323 -321 0
-323 -322 0
324 -319 323 0
-324 319 0
-324 -323 0
325 -319 324 0
-325 319 0
-325 -324 0
326 323 324 0
-326 -323 0
-326 -324 0
327 325 326 0
-327 -325 0
-327 -326 0
328 318 327 0
-328 -318 0
-328 -327 0
329 318 328 0
-329 -318 0
-329 -328 0
330 327 328 0
-330 -327 0
-330 -328 0
331 329 330 0
-331 -329 0
-331 -330 0
332 -4 -8 0
-332 4 0
-332 8 0
333 -4 332 0
-333 4 0
-333 -332 0
334 -8 332 0
-334 8 0
-334 -332 0
335 333 334 0
-335 -333 0
-335 -334 0
336 -12 -16 0
-336 12 0
-336 16 0
337 -12 336 0
-337 12 0
-337 -336 0
338 -16 336 0
-338 16 0
-338 -336 0
339 337 338 0
-339 -337 0
-339 -338 0
340 335 339 0
-340 -335 0
-340 -339 0
341 335 340 0
-341 -335 0
-341 -340 0
342 339 340 0
-342 -339 0
-342 -340 0
343 341 342 0
-343 -341 0
-343 -342 0
344 -36 -41 0
-344 36 0
-344 41 0
345 85 291 0
-345 -85 0
-345 -291 0
346 85 345 0
-346 -85 0
-346 -345 0
347 291 345 0
-347 -291 0
-347 -345 0
348 346 347 0
-348 -346 0
-348 -347 0
349 -344 348 0
-349 344 0
-349 -348 0
350 -344 349 0
-350 344 0
-350 -349 0
351 348 349 0
-351 -348 0
-351 -349 0
352 350 351 0
-352 -350 0
-352 -351 0
353 343 352 0
-353 -343 0
-353 -352 0
354 343 353 0
-354 -343 0
-354 -353 0
355 352 353 0
-355 -352 0
-355 -353 0
356 354 355 0
-356 -354 0
-356 -355 0
357 -100 -306 0
-357 100 0
-357 306 0
358 -331 -357 0
-358 331 0
-358 357 0
359 356 -358 0
-359 -356 0
-359 358 0
360 331 -357 0
-360 -331 0
-360 357 0
361 -356 -360 0
-361 356 0
-361 360 0
362 -100 306 0
-362 100 0
-362 -306 0
363 -331 -362 0
-363 331 0
-363 362 0
364 -356 -363 0
-364 356 0
-364 363 0
365 100 -306 0
-365 -100 0
-365 306 0
366 -331 -365 0
-366 331 0
-366 365 0
367 -356 -366 0
-367 356 0
-367 366 0
368 359 361 0
-368 -359 0
-368 -361 0
369 364 -368 0
-369 -364 0
-369 368 0
370 367 -369 0
-370 -367 0
-370 369 0
371 152 -204 0
-371 -152 0
-371 204 0
372 229 -371 0
-372 -229 0
-372 371 0
373 -254 -372 0
-373 254 0
-373 372 0
374 370 -373 0
-374 -370 0
-374 373 0
375 100 -374 0
-375 -100 0
-375 374 0
376 -1 -375 0
-376 1 0
-376 375 0
377 -1 376 0
-377 1 0
-377 -376 0
378 -375 376 0
-378 375 0
-378 -376 0
379 377 378 0
-379 -377 0
-379 -378 0
380 306 -374 0
-380 -306 0
-380 374 0
381 -2 -380 0
-381 2 0
-381 380 0
382 -2 381 0
-382 2 0
-382 -381 0
383 -380 381 0
-383 380 0
-383 -381 0
384 382 383 0
-384 -382 0
-384 -383 0
385 331 -374 0
-385 -331 0
-385 374 0
386 -3 -385 0
-386 3 0
-386 385 0
387 -3 386 0
-387 3 0
-387 -386 0
388 -385 386 0
-388 385 0
-388 -386 0
389 387 388 0
-389 -387 0
-389 -388 0
390 356 -374 0
-390 -356 0
-390 374 0
391 -4 -390 0
-391 4 0
-391 390 0
392 -4 391 0
-392 4 0
-392 -391 0
393 -390 391 0
-393 390 0
-393 -391 0
394 392 393 0
-394 -392 0
-394 -393 0
395 -229 -371 0
-395 229 0
-395 371 0
396 254 -395 0
-396 -254 0
-396 395 0
397 370 -396 0
-397 -370 0
-397 396 0
398 100 -397 0
-398 -100 0
-398 397 0
399 -5 -398 0
-399 5 0
-399 398 0
400 -5 399 0
-400 5 0
-400 -399 0
401 -398 399 0
-401 398 0
-401 -399 0
402 400 401 0
-402 -400 0
-402 -401 0
403 306 -397 0
-403 -306 0
-403 397 0
404 -6 -403 0
-404 6 0
-404 403 0
405 -6 404 0
-405 6 0
-405 -404 0
406 -403 404 0
-406 403 0
-406 -404 0
407 405 406 0
-407 -405 0
-407 -406 0
408 331 -397 0
-408 -331 0
-408 397 0
409 -7 -408 0
-409 7 0
-409 408 0
410 -7 409 0
-410 7 0
-410 -409 0
411 -408 409 0
-411 408 0
-411 -409 0
412 410 411 0
-412 -410 0
-412 -411 0
413 356 -397 0
-413 -356 0
-413 397 0
414 -8 -413 0
-414 8 0
-414 413 0
415 -8 414 0
-415 8 0
-415 -414 0
416 -413 414 0
-416 413 0
-416 -414 0
417 415 416 0
-417 -415 0
-417 -416 0
418 -152 204 0
-418 152 0
-418 -204 0
419 229 -418 0
-419 -229 0
-419 418 0
420 -254 -419 0
-420 254 0
-420 419 0
421 370 -420 0
-421 -370 0
-421 420 0
422 100 -421 0
-422 -100 0
-422 421 0
423 -9 -422 0
-423 9 0
-423 422 0
424 -9 423 0
-424 9 0
-424 -423 0
425 -422 423 0
-425 422 0
-425 -423 0
426 424 425 0
-426 -424 0
-426 -425 0
427 306 -421 0
-427 -306 0
-427 421 0
428 -10 -427 0
-428 10 0
-428 427 0
429 -10 428 0
-429 10 0
-429 -428 0
430 -427 428 0
-430 427 0
-430 -428 0
431 429 430 0
-431 -429 0
-431 -430 0
432 331 -421 0
-432 -331 0
-432 421 0
433 -11 -432 0
-433 11 0
-433 432 0
434 -11 433 0
-434 11 0
-434 -433 0
435 -432 433 0
-435 432 0
-435 -433 0
436 434 435 0
-436 -434 0
-436 -435 0
437 356 -421 0
-437 -356 0
-437 421 0
438 -12 -437 0
-438 12 0
-438 437 0
439 -46 438 0
-439 46 0
-439 -438 0
440 46 -438 0
-440 -46 0
-440 438 0
441 439 440 0
-441 -439 0
-441 -440 0
442 -12 -441 0
-442 12 0
-442 441 0
443 -437 -441 0
-443 437 0
-443 441 0
444 442 443 0
-444 -442 0
-444 -443 0
445 -229 -418 0
-445 229 0
-445 418 0
446 254 -445 0
-446 -254 0
-446 445 0
447 370 -446 0
-447 -370 0
-447 446 0
448 100 -447 0
-448 -100 0
-448 447 0
449 -13 -448 0
-449 13 0
-449 448 0
450 -13 449 0
-450 13 0
-450 -449 0
451 -448 449 0
-451 448 0
-451 -449 0
452 450 451 0
-452 -450 0
-452 -451 0
453 306 -447 0
-453 -306 0
-453 447 0
454 -14 -453 0
-454 14 0
-454 453 0
455 -14 454 0
-455 14 0
-455 -454 0
456 -453 454 0
-456 453 0
-456 -454 0
457 455 456 0
-457 -455 0
-457 -456 0
458 331 -447 0
-458 -331 0
-458 447 0
459 -15 -458 0
-459 15 0
-459 458 0
460 -15 459 0
-460 15 0
-460 -459 0
461 -458 459 0
-461 458 0
-461 -459 0
462 460 461 0
-462 -460 0
-462 -461 0
463 356 -447 0
-463 -356 0
-463 447 0
464 -16 -463 0
-464 16 0
-464 463 0
465 -16 464 0
-465 16 0
-465 -464 0
466 -463 464 0
-466 463 0
-466 -464 0
467 465 466 0
-467 -465 0
-467 -466 0
468 -152 -204 0
-468 152 0
-468 204 0
469 -229 -468 0
-469 229 0
-469 468 0
470 254 -469 0
-470 -254 0
-470 469 0
471 229 -468 0
-471 -229 0
-471 468 0
472 -254 -471 0
-472 254 0
-472 471 0
473 -254 -445 0
-473 254 0
-473 445 0
474 -254 -395 0
-474 254 0
-474 395 0
475 470 472 0
-475 -470 0
-475 -472 0
476 473 -475 0
-476 -473 0
-476 475 0
477 474 -476 0
-477 -474 0
-477 476 0
478 331 -365 0
-478 -331 0
-478 365 0
479 -356 -478 0
-479 356 0
-479 478 0
480 477 -479 0
-480 -477 0
-480 479 0
481 152 -480 0
-481 -152 0
-481 480 0
482 -17 -481 0
-482 17 0
-482 481 0
483 -17 482 0
-483 17 0
-483 -482 0
484 -481 482 0
-484 481 0
-484 -482 0
485 483 484 0
-485 -483 0
-485 -484 0
486 204 -480 0
-486 -204 0
-486 480 0
487 -18 -486 0
-487 18 0
-487 486 0
488 -18 487 0
-488 18 0
-488 -487 0
489 -486 487 0
-489 486 0
-489 -487 0
490 488 489 0
-490 -488 0
-490 -489 0
491 -47 490 0
-491 47 0
-491 -490 0
492 47 -490 0
-492 -47 0
-492 490 0
493 491 492 0
-493 -491 0
-493 -492 0
494 229 -480 0
-494 -229 0
-494 480 0
495 -19 -494 0
-495 19 0
-495 494 0
496 -19 495 0
-496 19 0
-496 -495 0
497 -494 495 0
-497 494 0
-497 -495 0
498 496 497 0
-498 -496 0
-498 -497 0
499 254 -480 0
-499 -254 0
-499 480 0
500 -20 -499 0
-500 20 0
-500 499 0
501 -20 500 0
-501 20 0
-501 -500 0
502 -499 500 0
-502 499 0
-502 -500 0
503 501 502 0
-503 -501 0
-503 -502 0
504 356 -366 0
-504 -356 0
-504 366 0
505 477 -504 0
-505 -477 0
-505 504 0
506 152 -505 0
-506 -152 0
-506 505 0
507 -21 -506 0
-507 21 0
-507 506 0
508 -21 507 0
-508 21 0
-508 -507 0
509 -506 507 0
-509 506 0
-509 -507 0
510 508 509 0
-510 -508 0
-510 -509 0
511 204 -505 0
-511 -204 0
-511 505 0
512 -22 -511 0
-512 22 0
-512 511 0
513 -22 512 0
-513 22 0
-513 -512 0
514 -511 512 0
-514 511 0
-514 -512 0
515 513 514 0
-515 -513 0
-515 -514 0
516 229 -505 0
-516 -229 0
-516 505 0
517 -23 -516 0
-517 23 0
-517 516 0
518 -23 517 0
-518 23 0
-518 -517 0
519 -516 517 0
-519 516 0
-519 -517 0
520 518 519 0
-520 -518 0
-520 -519 0
521 254 -505 0
-521 -254 0
-521 505 0
522 -24 -521 0
-522 24 0
-522 521 0
523 -24 522 0
-523 24 0
-523 -522 0
524 -521 522 0
-524 521 0
-524 -522 0
525 523 524 0
-525 -523 0
-525 -524 0
526 331 -362 0
-526 -331 0
-526 362 0
527 -356 -526 0
-527 356 0
-527 526 0
528 477 -527 0
-528 -477 0
-528 527 0
529 152 -528 0
-529 -152 0
-529 528 0
530 -25 -529 0
-530 25 0
-530 529 0
531 -25 530 0
-531 25 0
-531 -530 0
532 -529 530 0
-532 529 0
-532 -530 0
533 531 532 0
-533 -531 0
-533 -532 0
534 204 -528 0
-534 -204 0
-534 528 0
535 -26 -534 0
-535 26 0
-535 534 0
536 -26 535 0
-536 26 0
-536 -535 0
537 -534 535 0
-537 534 0
-537 -535 0
538 536 537 0
-538 -536 0
-538 -537 0
539 229 -528 0
-539 -229 0
-539 528 0
540 -27 -539 0
-540 27 0
-540 539 0
541 -27 540 0
-541 27 0
-541 -540 0
542 -539 540 0
-542 539 0
-542 -540 0
543 541 542 0
-543 -541 0
-543 -542 0
544 254 -528 0
-544 -254 0
-544 528 0
545 -28 -544 0
-545 28 0
-545 544 0
546 -28 545 0
-546 28 0
-546 -545 0
547 -544 545 0
-547 544 0
-547 -545 0
548 546 547 0
-548 -546 0
-548 -547 0
549 356 -363 0
-549 -356 0
-549 363 0
550 477 -549 0
-550 -477 0
-550 549 0
551 152 -550 0
-551 -152 0
-551 550 0
552 -29 -551 0
-552 29 0
-552 551 0
553 -29 552 0
-553 29 0
-553 -552 0
554 -551 552 0
-554 551 0
-554 -552 0
555 553 554 0
-555 -553 0
-555 -554 0
556 204 -550 0
-556 -204 0
-556 550 0
557 -30 -556 0
-557 30 0
-557 556 0
558 -30 557 0
-558 30 0
-558 -557 0
559 -556 557 0
-559 556 0
-559 -557 0
560 558 559 0
-560 -558 0
-560 -559 0
561 229 -550 0
-561 -229 0
-561 550 0
562 -31 -561 0
-562 31 0
-562 561 0
563 -31 562 0
-563 31 0
-563 -562 0
564 -561 562 0
-564 561 0
-564 -562 0
565 563 564 0
-565 -563 0
-565 -564 0
566 254 -550 0
-566 -254 0
-566 550 0
567 -32 -566 0
-567 32 0
-567 566 0
568 -32 567 0
-568 32 0
-568 -567 0
569 -566 567 0
-569 566 0
-569 -567 0
570 568 569 0
-570 -568 0
-570 -569 0
571 -61 90 0
-571 61 0
-571 -90 0
572 89 90 0
-572 -89 0
-572 -90 0
573 571 572 0
-573 -571 0
-573 -572 0
574 60 573 0
-574 -60 0
-574 -573 0
575 60 574 0
-575 -60 0
-575 -574 0
576 573 574 0
-576 -573 0
-576 -574 0
577 575 576 0
-577 -575 0
-577 -576 0
578 106 107 0
-578 -106 0
-578 -107 0
579 104 578 0
-579 -104 0
-579 -578 0
580 104 579 0
-580 -104 0
-580 -579 0
581 578 579 0
-581 -578 0
-581 -579 0
582 580 581 0
-582 -580 0
-582 -581 0
583 148 582 0
-583 -148 0
-583 -582 0
584 582 583 0
-584 -582 0
-584 -583 0
585 148 583 0
-585 -148 0
-585 -583 0
586 584 585 0
-586 -584 0
-586 -585 0
587 158 159 0
-587 -158 0
-587 -159 0
588 156 587 0
-588 -156 0
-588 -587 0
589 156 588 0
-589 -156 0
-589 -588 0
590 587 588 0
-590 -587 0
-590 -588 0
591 589 590 0
-591 -589 0
-591 -590 0
592 200 591 0
-592 -200 0
-592 -591 0
593 591 592 0
-593 -591 0
-593 -592 0
594 200 592 0
-594 -200 0
-594 -592 0
595 593 594 0
-595 -593 0
-595 -594 0
596 279 292 0
-596 -279 0
-596 -292 0
597 291 292 0
-597 -291 0
-597 -292 0
598 596 597 0
-598 -596 0
-598 -597 0
599 -267 598 0
-599 267 0
-599 -598 0
600 -267 599 0
-600 267 0
-600 -599 0
601 598 599 0
-601 -598 0
-601 -599 0
602 600 601 0
-602 -600 0
-602 -601 0
603 266 602 0
-603 -266 0
-603 -602 0
604 266 603 0
-604 -266 0
-604 -603 0
605 602 603 0
-605 -602 0
-605 -603 0
606 604 605 0
-606 -604 0
-606 -605 0
607 -577 -606 0
-607 577 0
-607 606 0
608 -331 -607 0
-608 331 0
-608 607 0
609 356 -608 0
-609 -356 0
-609 608 0
610 331 -607 0
-610 -331 0
-610 607 0
611 -356 -610 0
-611 356 0
-611 610 0
612 -577 606 0
-612 577 0
-612 -606 0
613 -331 -612 0
-613 331 0
-613 612 0
614 -356 -613 0
-614 356 0
-614 613 0
615 577 -606 0
-615 -577 0
-615 606 0
616 -331 -615 0
-616 331 0
-616 615 0
617 -356 -616 0
-617 356 0
-617 616 0
618 609 611 0
-618 -609 0
-618 -611 0
619 614 -618 0
-619 -614 0
-619 618 0
620 617 -619 0
-620 -617 0
-620 619 0
621 586 -595 0
-621 -586 0
-621 595 0
622 229 -621 0
-622 -229 0
-622 621 0
623 -254 -622 0
-623 254 0
-623 622 0
624 620 -623 0
-624 -620 0
-624 623 0
625 577 -624 0
-625 -577 0
-625 624 0
626 -1 -625 0
-626 1 0
-626 625 0
627 -1 626 0
-627 1 0
-627 -626 0
628 -625 626 0
-628 625 0
-628 -626 0
629 627 628 0
-629 -627 0
-629 -628 0
630 606 -624 0
-630 -606 0
-630 624 0
631 -2 -630 0
-631 2 0
-631 630 0
632 -2 631 0
-632 2 0
-632 -631 0
633 -630 631 0
-633 630 0
-633 -631 0
634 632 633 0
-634 -632 0
-634 -633 0
635 331 -624 0
-635 -331 0
-635 624 0
636 -3 -635 0
-636 3 0
-636 635 0
637 -3 636 0
-637 3 0
-637 -636 0
638 -635 636 0
-638 635 0
-638 -636 0
639 637 638 0
-639 -637 0
-639 -638 0
640 356 -624 0
-640 -356 0
-640 624 0
641 -4 -640 0
-641 4 0
-641 640 0
642 -4 641 0
-642 4 0
-642 -641 0
643 -640 641 0
-643 640 0
-643 -641 0
644 642 643 0
-644 -642 0
-644 -643 0
645 -229 -621 0
-645 229 0
-645 621 0
646 254 -645 0
-646 -254 0
-646 645 0
647 620 -646 0
-647 -620 0
-647 646 0
648 577 -647 0
-648 -577 0
-648 647 0
649 -5 -648 0
-649 5 0
-649 648 0
650 -5 649 0
-650 5 0
-650 -649 0
651 -648 649 0
-651 648 0
-651 -649 0
652 650 651 0
-652 -650 0
-652 -651 0
653 606 -647 0
-653 -606 0
-653 647 0
654 -6 -653 0
-654 6 0
-654 653 0
655 -6 654 0
-655 6 0
-655 -654 0
656 -653 654 0
-656 653 0
-656 -654 0
657 655 656 0
-657 -655 0
-657 -656 0
658 331 -647 0
-658 -331 0
-658 647 0
659 -7 -658 0
-659 7 0
-659 658 0
660 -7 659 0
-660 7 0
-660 -659 0
661 -658 659 0
-661 658 0
-661 -659 0
662 660 661 0
-662 -660 0
-662 -661 0
663 356 -647 0
-663 -356 0
-663 647 0
664 -8 -663 0
-664 8 0
-664 663 0
665 -8 664 0
-665 8 0
-665 -664 0
666 -663 664 0
-666 663 0
-666 -664 0
667 665 666 0
-667 -665 0
-667 -666 0
668 -586 595 0
-668 586 0
-668 -595 0
669 229 -668 0
-669 -229 0
-669 668 0
670 -254 -669 0
-670 254 0
-670 669 0
671 620 -670 0
-671 -620 0
-671 670 0
672 577 -671 0
-672 -577 0
-672 671 0
673 -9 -672 0
-673 9 0
-673 672 0
674 -9 673 0
-674 9 0
-674 -673 0
675 -672 673 0
-675 672 0
-675 -673 0
676 674 675 0
-676 -674 0
-676 -675 0
677 606 -671 0
-677 -606 0
-677 671 0
678 -10 -677 0
-678 10 0
-678 677 0
679 -10 678 0
-679 10 0
-679 -678 0
680 -677 678 0
-680 677 0
-680 -678 0
681 679 680 0
-681 -679 0
-681 -680 0
682 331 -671 0
-682 -331 0
-682 671 0
683 -11 -682 0
-683 11 0
-683 682 0
684 -11 683 0
-684 11 0
-684 -683 0
685 -682 683 0
-685 682 0
-685 -683 0
686 684 685 0
-686 -684 0
-686 -685 0
687 356 -671 0
-687 -356 0
-687 671 0
688 -12 -687 0
-688 12 0
-688 687 0
689 -12 688 0
-689 12 0
-689 -688 0
690 -687 688 0
-690 687 0
-690 -688 0
691 689 690 0
-691 -689 0
-691 -690 0
692 -229 -668 0
-692 229 0
-692 668 0
693 254 -692 0
-693 -254 0
-693 692 0
694 620 -693 0
-694 -620 0
-694 693 0
695 577 -694 0
-695 -577 0
-695 694 0
696 -13 -695 0
-696 13 0
-696 695 0
697 -13 696 0
-697 13 0
-697 -696 0
698 -695 696 0
-698 695 0
-698 -696 0
699 697 698 0
-699 -697 0
-699 -698 0
700 606 -694 0
-700 -606 0
-700 694 0
701 -14 -700 0
-701 14 0
-701 700 0
702 -14 701 0
-702 14 0
-702 -701 0
703 -700 701 0
-703 700 0
-703 -701 0
704 702 703 0
-704 -702 0
-704 -703 0
705 331 -694 0
-705 -331 0
-705 694 0
706 -15 -705 0
-706 15 0
-706 705 0
707 -15 706 0
-707 15 0
-707 -706 0
708 -705 706 0
-708 705 0
-708 -706 0
709 707 708 0
-709 -707 0
-709 -708 0
710 356 -694 0
-710 -356 0
-710 694 0
711 -16 -710 0
-711 16 0
-711 710 0
712 -16 711 0
-712 16 0
-712 -711 0
713 -710 711 0
-713 710 0
-713 -711 0
714 712 713 0
-714 -712 0
-714 -713 0
715 -586 -595 0
-715 586 0
-715 595 0
716 -229 -715 0
-716 229 0
-716 715 0
717 254 -716 0
-717 -254 0
-717 716 0
718 229 -715 0
-718 -229 0
-718 715 0
719 -254 -718 0
-719 254 0
-719 718 0
720 -254 -692 0
-720 254 0
-720 692 0
721 -254 -645 0
-721 254 0
-721 645 0
722 717 719 0
-722 -717 0
-722 -719 0
723 720 -722 0
-723 -720 0
-723 722 0
724 721 -723 0
-724 -721 0
-724 723 0
725 331 -615 0
-725 -331 0
-725 615 0
726 -356 -725 0
-726 356 0
-726 725 0
727 724 -726 0
-727 -724 0
-727 726 0
728 586 -727 0
-728 -586 0
-728 727 0
729 -17 -728 0
-729 17 0
-729 728 0
730 -17 729 0
-730 17 0
-730 -729 0
731 -728 729 0
-731 728 0
-731 -729 0
732 730 731 0
-732 -730 0
-732 -731 0
733 595 -727 0
-733 -595 0
-733 727 0
734 -18 -733 0
-734 18 0
-734 733 0
735 -18 734 0
-735 18 0
-735 -734 0
736 -733 734 0
-736 733 0
-736 -734 0
737 735 736 0
-737 -735 0
-737 -736 0
738 229 -727 0
-738 -229 0
-738 727 0
739 -19 -738 0
-739 19 0
-739 738 0
740 -19 739 0
-740 19 0
-740 -739 0
741 -738 739 0
-741 738 0
-741 -739 0
742 740 741 0
-742 -740 0
-742 -741 0
743 254 -727 0
-743 -254 0
-743 727 0
744 -20 -743 0
-744 20 0
-744 743 0
745 -20 744 0
-745 20 0
-745 -744 0
746 -743 744 0
-746 743 0
-746 -744 0
747 745 746 0
-747 -745 0
-747 -746 0
748 356 -616 0
-748 -356 0
-748 616 0
749 724 -748 0
-749 -724 0
-749 748 0
750 586 -749 0
-750 -586 0
-750 749 0
751 -21 -750 0
-751 21 0
-751 750 0
752 -21 751 0
-752 21 0
-752 -751 0
753 -750 751 0
-753 750 0
-753 -751 0
754 752 753 0
-754 -752 0
-754 -753 0
755 595 -749 0
-755 -595 0
-755 749 0
756 -22 -755 0
-756 22 0
-756 755 0
757 -22 756 0
-757 22 0
-757 -756 0
758 -755 756 0
-758 755 0
-758 -756 0
759 757 758 0
-759 -757 0
-759 -758 0
760 229 -749 0
-760 -229 0
-760 749 0
761 -23 -760 0
-761 23 0
-761 760 0
762 -23 761 0
-762 23 0
-762 -761 0
763 -760 761 0
-763 760 0
-763 -761 0
764 762 763 0
-764 -762 0
-764 -763 0
765 254 -749 0
-765 -254 0
-765 749 0
766 -24 -765 0
-766 24 0
-766 765 0
767 -24 766 0
-767 24 0
-767 -766 0
768 -765 766 0
-768 765 0
-768 -766 0
769 767 768 0
-769 -767 0
-769 -768 0
770 331 -612 0
-770 -331 0
-770 612 0
771 -356 -770 0
-771 356 0
-771 770 0
772 724 -771 0
-772 -724 0
-772 771 0
773 586 -772 0
-773 -586 0
-773 772 0
774 -25 -773 0
-774 25 0
-774 773 0
775 -25 774 0
-775 25 0
-775 -774 0
776 -773 774 0
-776 773 0
-776 -774 0
777 775 776 0
-777 -775 0
-777 -776 0
778 595 -772 0
-778 -595 0
-778 772 0
779 -26 -778 0
-779 26 0
-779 778 0
780 -26 779 0
-780 26 0
-780 -779 0
781 -778 779 0
-781 778 0
-781 -779 0
782 780 781 0
-782 -780 0
-782 -781 0
783 229 -772 0
-783 -229 0
-783 772 0
784 -27 -783 0
-784 27 0
-784 783 0
785 -27 784 0
-785 27 0
-785 -784 0
786 -783 784 0
-786 783 0
-786 -784 0
787 785 786 0
-787 -785 0
-787 -786 0
788 254 -772 0
-788 -254 0
-788 772 0
789 -28 -788 0
-789 28 0
-789 788 0
790 -28 789 0
-790 28 0
-790 -789 0
791 -788 789 0
-791 788 0
-791 -789 0
792 790 791 0
-792 -790 0
-792 -791 0
793 356 -613 0
-793 -356 0
-793 613 0
794 724 -793 0
-794 -724 0
-794 793 0
795 586 -794 0
-795 -586 0
-795 794 0
796 -29 -795 0
-796 29 0
-796 795 0
797 -29 796 0
-797 29 0
-797 -796 0
798 -795 796 0
-798 795 0
-798 -796 0
799 797 798 0
-799 -797 0
-799 -798 0
800 595 -794 0
-800 -595 0
-800 794 0
801 -30 -800 0
-801 30 0
-801 800 0
802 -30 801 0
-802 30 0
-802 -801 0
803 -800 801 0
-803 800 0
-803 -801 0
804 802 803 0
-804 -802 0
-804 -803 0
805 229 -794 0
-805 -229 0
-805 794 0
806 -31 -805 0
-806 31 0
-806 805 0
807 -31 806 0
-807 31 0
-807 -806 0
808 -805 806 0
-808 805 0
-808 -806 0
809 807 808 0
-809 -807 0
-809 -808 0
810 254 -794 0
-810 -254 0
-810 794 0
811 -32 -810 0
-811 32 0
-811 810 0
812 -32 811 0
-812 32 0
-812 -811 0
813 -810 811 0
-813 810 0
-813 -811 0
814 812 813 0
-814 -812 0
-814 -813 0
815 -379 629 0
-815 379 0
-815 -629 0
816 379 -629 0
-816 -379 0
-816 629 0
817 815 816 0
-817 -815 0
-817 -816 0
818 -384 634 0
-818 384 0
-818 -634 0
819 384 -634 0
-819 -384 0
-819 634 0
820 818 819 0
-820 -818 0
-820 -819 0
821 -389 639 0
-821 389 0
-821 -639 0
822 389 -639 0
-822 -389 0
-822 639 0
823 821 822 0
-823 -821 0
-823 -822 0
824 -394 644 0
-824 394 0
-824 -644 0
825 394 -644 0
-825 -394 0
-825 644 0
826 824 825 0
-826 -824 0
-826 -825 0
827 -402 652 0
-827 402 0
-827 -652 0
828 402 -652 0
-828 -402 0
-828 652 0
829 827 828 0
-829 -827 0
-829 -828 0
830 -407 657 0
-830 407 0
-830 -657 0
831 407 -657 0
-831 -407 0
-831 657 0
832 830 831 0
-832 -830 0
-832 -831 0
833 -412 662 0
-833 412 0
-833 -662 0
834 412 -662 0
-834 -412 0
-834 662 0
835 833 834 0
-835 -833 0
-835 -834 0
836 -417 667 0
-836 417 0
-836 -667 0
837 417 -667 0
-837 -417 0
-837 667 0
838 836 837 0
-838 -836 0
-838 -837 0
839 -426 676 0
-839 426 0
-839 -676 0
840 426 -676 0
-840 -426 0
-840 676 0
841 839 840 0
-841 -839 0
-841 -840 0
842 -431 681 0
-842 431 0
-842 -681 0
843 431 -681 0
-843 -431 0
-843 681 0
844 842 843 0
-844 -842 0
-844 -843 0
845 -436 686 0
-845 436 0
-845 -686 0
846 436 -686 0
-846 -436 0
-846 686 0
847 845 846 0
-847 -845 0
-847 -846 0
848 -444 691 0
-848 444 0
-848 -691 0
849 444 -691 0
-849 -444 0
-849 691 0
850 848 849 0
-850 -848 0
-850 -849 0
851 -452 699 0
-851 452 0
-851 -699 0
852 452 -699 0
-852 -452 0
-852 699 0
853 851 852 0
-853 -851 0
-853 -852 0
854 -457 704 0
-854 457 0
-854 -704 0
855 457 -704 0
-855 -457 0
-855 704 0
856 854 855 0
-856 -854 0
-856 -855 0
857 -462 709 0
-857 462 0
-857 -709 0
858 462 -709 0
-858 -462 0
-858 709 0
859 857 858 0
-859 -857 0
-859 -858 0
860 -467 714 0
-860 467 0
-860 -714 0
861 467 -714 0
-861 -467 0
-861 714 0
862 860 861 0
-862 -860 0
-862 -861 0
863 -485 732 0
-863 485 0
-863 -732 0
864 485 -732 0
-864 -485 0
-864 732 0
865 863 864 0
-865 -863 0
-865 -864 0
866 493 737 0
-866 -493 0
-866 -737 0
867 -493 -737 0
-867 493 0
-867 737 0
868 866 867 0
-868 -866 0
-868 -867 0
869 -498 742 0
-869 498 0
-869 -742 0
870 498 -742 0
-870 -498 0
-870 742 0
871 869 870 0
-871 -869 0
-871 -870 0
872 -503 747 0
-872 503 0
-872 -747 0
873 503 -747 0
-873 -503 0
-873 747 0
874 872 873 0
-874 -872 0
-874 -873 0
875 -510 754 0
-875 510 0
-875 -754 0
876 510 -754 0
-876 -510 0
-876 754 0
877 875 876 0
-877 -875 0
-877 -876 0
878 -515 759 0
-878 515 0
-878 -759 0
879 515 -759 0
-879 -515 0
-879 759 0
880 878 879 0
-880 -878 0
-880 -879 0
881 -520 764 0
-881 520 0
-881 -764 0
882 520 -764 0
-882 -520 0
-882 764 0
883 881 882 0
-883 -881 0
-883 -882 0
884 -525 769 0
-884 525 0
-884 -769 0
885 525 -769 0
-885 -525 0
-885 769 0
886 884 885 0
-886 -884 0
-886 -885 0
887 -533 777 0
-887 533 0
-887 -777 0
888 533 -777 0
-888 -533 0
-888 777 0
889 887 888 0
-889 -887 0
-889 -888 0
890 -538 782 0
-890 538 0
-890 -782 0
891 538 -782 0
-891 -538 0
-891 782 0
892 890 891 0
-892 -890 0
-892 -891 0
893 -543 787 0
-893 543 0
-893 -787 0
894 543 -787 0
-894 -543 0
-894 787 0
895 893 894 0
-895 -893 0
-895 -894 0
896 -548 792 0
-896 548 0
-896 -792 0
897 548 -792 0
-897 -548 0
-897 792 0
898 896 897 0
-898 -896 0
-898 -897 0
899 -555 799 0
-899 555 0
-899 -799 0
900 555 -799 0
-900 -555 0
-900 799 0
901 899 900 0
-901 -899 0
-901 -900 0
902 -560 804 0
-902 560 0
-902 -804 0
903 560 -804 0
-903 -560 0
-903 804 0
904 902 903 0
-904 -902 0
-904 -903 0
905 -565 809 0
-905 565 0
-905 -809 0
906 565 -809 0
-906 -565 0
-906 809 0
907 905 906 0
-907 -905 0
-907 -906 0
908 -570 814 0
-908 570 0
-908 -814 0
909 570 -814 0
-909 -570 0
-909 814 0
910 908 909 0
-910 -908 0
-910 -909 0
911 -817 -820 0
-911 817 0
-911 820 0
912 -823 -826 0
-912 823 0
-912 826 0
913 -911 -912 0
-913 911 0
-913 912 0
914 -829 -832 0
-914 829 0
-914 832 0
915 -835 -838 0
-915 835 0
-915 838 0
916 -914 -915 0
-916 914 0
-916 915 0
917 -913 -916 0
-917 913 0
-917 916 0
918 -841 -844 0
-918 841 0
-918 844 0
919 -847 -850 0
-919 847 0
-919 850 0
920 -918 -919 0
-920 918 0
-920 919 0
921 -853 -856 0
-921 853 0
-921 856 0
922 -859 -862 0
-922 859 0
-922 862 0
923 -921 -922 0
-923 921 0
-923 922 0
924 -920 -923 0
-924 920 0
-924 923 0
925 -917 -924 0
-925 917 0
-925 924 0
926 -865 -868 0
-926 865 0
-926 868 0
927 -871 -874 0
-927 871 0
-927 874 0
928 -926 -927 0
-928 926 0
-928 927 0
929 -877 -880 0
-929 877 0
-929 880 0
930 -883 -886 0
-930 883 0
-930 886 0
931 -929 -930 0
-931 929 0
-931 930 0
932 -928 -931 0
-932 928 0
-932 931 0
933 -889 -892 0
-933 889 0
-933 892 0
934 -895 -898 0
-934 895 0
-934 898 0
935 -933 -934 0
-935 933 0
-935 934 0
936 -901 -904 0
-936 901 0
-936 904 0
937 -907 -910 0
-937 907 0
-937 910 0
938 -936 -937 0
-938 936 0
-938 937 0
939 -935 -938 0
-939 935 0
-939 938 0
940 -932 -939 0
-940 932 0
-940 939 0
941 -925 -940 0
-941 925 0
-941 940 0
48 941 0
-48 -941 0
48 0
42 -942 -960 0
-42 942 0
-42 960 0
960 -943 -944 0
-960 943 0
-960 944 0
43 -945 -961 0
-43 945 0
-43 961 0
961 -946 -947 0
-961 946 0
-961 947 0
44 -948 -962 0
-44 948 0
-44 962 0
962 -949 -950 0
-962 949 0
-962 950 0
45 -951 -963 0
-45 951 0
-45 963 0
963 -952 -953 0
-963 952 0
-963 953 0
46 -954 -964 0
-46 954 0
-46 964 0
964 -955 -956 0
-964 955 0
-964 956 0
47 -957 -965 0
-47 957 0
-47 965 0
965 -958 -959 0
-965 958 0
-965 959 0
